(set-logic ALL)
(set-option :produce-models true)
(declare-sort BoundSet 0)
(declare-sort UnboundSet 0)
(set-option :finite-model-find true)
(declare-fun IsThoughtToBeFlat (BoundSet) Bool)
(declare-fun IsFlat (BoundSet) Bool)
(assert (not (=> (exists ((a BoundSet)) (IsThoughtToBeFlat a)) (exists ((a BoundSet)) (IsFlat a)))))
(check-sat)
(get-model)